r = [
0,279,26,314,363,317,175,83,200,91,252,350,308,162,12,182,323,249,47,198,214,231,310,132,144,9,0
];
p = [
0,14,19,8,5,15,8,25,19,24,14,28,18,12,6,25,4,9,26,20,14,30,21,19,18,12,0
];
e = [
0,13,12,13,18,11,12,3,17,2,18,18,1,1,11,15,1,20,14,19,5,10,18,4,5,12,0
];
d = [
0,293,192,395,500,332,183,183,219,244,266,378,334,194,182,207,327,316,73,295,385,284,461,214,305,40,505
];
d_bar = [
0,306,209,402,505,346,190,206,236,266,279,403,350,205,187,230,331,324,96,313,398,311,480,231,321,51,505
];
w = [
0,1,0.705882353,1.857142857,3.6,0.785714286,1.714285714,0.130434783,1,0.090909091,1.384615385,0.72,0.0625,0.090909091,2.2,0.652173913,0.25,2.5,0.608695652,1.055555556,0.384615385,0.37037037,0.947368421,0.235294118,0.3125,1.090909091,0
];
